networks/zoo_59_174/lower/zoo_59_174-lower.sol
<?xml version = "1.0" encoding="UTF-8" standalone="yes"?>
<CPLEXSolution version="1.2">
 <header
   problemName="networks/zoo_59_174/zoo_59_174-lower.lp"
   solutionName="incumbent"
   solutionIndex="-1"
   objectiveValue="33"
   solutionTypeValue="3"
   solutionTypeString="primal"
   solutionStatusValue="101"
   solutionStatusString="integer optimal solution"
   solutionMethodString="mip"
   primalFeasible="1"
   dualFeasible="1"
   MIPNodes="0"
   MIPIterations="318"
   writeLevel="3"/>
 <quality
   epInt="1.0000000000000001e-05"
   epRHS="9.9999999999999995e-07"
   maxIntInfeas="0"
   maxPrimalInfeas="0"
   maxX="1"
   maxSlack="1"/>
 <variables>
  <variable name="Y(5,13)" index="200" value="1"/>
  <variable name="Y(12,3)" index="519" value="1"/>
  <variable name="Y(16,10)" index="714" value="1"/>
  <variable name="Y(23,23)" index="1054" value="1"/>
  <variable name="Y(24,27)" index="1105" value="1"/>
  <variable name="Y(26,5)" index="1179" value="1"/>
  <variable name="Y(37,16)" index="1706" value="1"/>
  <variable name="Y(42,21)" index="1945" value="1"/>
  <variable name="Y(59,1)" index="2726" value="1"/>
  <variable name="Y(67,6)" index="3107" value="1"/>
  <variable name="Y(69,11)" index="3206" value="1"/>
  <variable name="Y(74,22)" index="3450" value="1"/>
  <variable name="Y(78,6)" index="3624" value="1"/>
  <variable name="Y(79,7)" index="3672" value="1"/>
  <variable name="Y(82,12)" index="3818" value="1"/>
  <variable name="Y(90,26)" index="4206" value="1"/>
  <variable name="Y(101,19)" index="4716" value="1"/>
  <variable name="Y(105,24)" index="4909" value="1"/>
  <variable name="Y(108,28)" index="5054" value="1"/>
  <variable name="Y(111,18)" index="5185" value="1"/>
  <variable name="Y(114,29)" index="5337" value="1"/>
  <variable name="Y(115,20)" index="5375" value="1"/>
  <variable name="Y(116,20)" index="5422" value="1"/>
  <variable name="Y(119,8)" index="5553" value="1"/>
  <variable name="Y(127,30)" index="5949" value="1"/>
  <variable name="Y(129,2)" index="6017" value="1"/>
  <variable name="Y(146,13)" index="6827" value="1"/>
  <variable name="Y(147,24)" index="6883" value="1"/>
  <variable name="Y(155,25)" index="7260" value="1"/>
  <variable name="Y(157,14)" index="7345" value="1"/>
  <variable name="Y(158,27)" index="7403" value="1"/>
  <variable name="Y(171,16)" index="8004" value="1"/>
  <variable name="Y(174,21)" index="8149" value="1"/>
  <variable name="X(1,2,129)" index="8306" value="1"/>
  <variable name="X(1,22,42)" index="8393" value="1"/>
  <variable name="X(1,31,59)" index="8584" value="1"/>
  <variable name="X(2,1,59)" index="8758" value="1"/>
  <variable name="X(2,7,5)" index="8878" value="1"/>
  <variable name="X(2,32,129)" index="9176" value="1"/>
  <variable name="X(3,14,12)" index="9233" value="1"/>
  <variable name="X(4,8,119)" index="9514" value="1"/>
  <variable name="X(4,22,23)" index="9592" value="1"/>
  <variable name="X(5,14,26)" index="9769" value="1"/>
  <variable name="X(6,13,146)" index="10063" value="1"/>
  <variable name="X(6,23,67)" index="10158" value="1"/>
  <variable name="X(6,36,78)" index="10343" value="1"/>
  <variable name="X(7,2,59)" index="10498" value="1"/>
  <variable name="X(7,13,5)" index="10618" value="1"/>
  <variable name="X(7,16,37)" index="10824" value="1"/>
  <variable name="X(7,37,79)" index="11040" value="1"/>
  <variable name="X(8,13,16)" index="11151" value="1"/>
  <variable name="X(8,38,119)" index="11428" value="1"/>
  <variable name="X(9,10,16)" index="11499" value="1"/>
  <variable name="X(9,13,67)" index="11724" value="1"/>
  <variable name="X(10,9,67)" index="11898" value="1"/>
  <variable name="X(10,16,59)" index="12064" value="1"/>
  <variable name="X(10,40,16)" index="12195" value="1"/>
  <variable name="X(11,14,69)" index="12422" value="1"/>
  <variable name="X(12,14,74)" index="12601" value="1"/>
  <variable name="X(12,42,82)" index="12783" value="1"/>
  <variable name="X(13,6,67)" index="12942" value="1"/>
  <variable name="X(13,7,79)" index="13128" value="1"/>
  <variable name="X(13,8,5)" index="13228" value="1"/>
  <variable name="X(13,9,16)" index="13413" value="1"/>
  <variable name="X(13,14,101)" index="13672" value="1"/>
  <variable name="X(13,16,171)" index="13916" value="1"/>
  <variable name="X(13,43,146)" index="14065" value="1"/>
  <variable name="X(14,12,82)" index="14175" value="1"/>
  <variable name="X(14,13,171)" index="14438" value="1"/>
  <variable name="X(14,19,101)" index="14542" value="1"/>
  <variable name="X(14,22,74)" index="14689" value="1"/>
  <variable name="X(14,24,23)" index="14812" value="1"/>
  <variable name="X(14,26,90)" index="15053" value="1"/>
  <variable name="X(14,27,24)" index="15161" value="1"/>
  <variable name="X(14,28,114)" index="15425" value="1"/>
  <variable name="X(14,44,157)" index="15642" value="1"/>
  <variable name="X(16,7,59)" index="15718" value="1"/>
  <variable name="X(16,10,37)" index="15870" value="1"/>
  <variable name="X(16,13,101)" index="16108" value="1"/>
  <variable name="X(16,46,171)" index="16352" value="1"/>
  <variable name="X(18,14,111)" index="16466" value="1"/>
  <variable name="X(19,14,114)" index="16643" value="1"/>
  <variable name="X(19,49,101)" index="16804" value="1"/>
  <variable name="X(20,13,115)" index="16992" value="1"/>
  <variable name="X(20,14,116)" index="17167" value="1"/>
  <variable name="X(21,22,174)" index="17399" value="1"/>
  <variable name="X(21,30,127)" index="17526" value="1"/>
  <variable name="X(21,51,42)" index="17615" value="1"/>
  <variable name="X(22,1,129)" index="17876" value="1"/>
  <variable name="X(22,4,119)" index="18040" value="1"/>
  <variable name="X(22,14,23)" index="18118" value="1"/>
  <variable name="X(22,21,42)" index="18311" value="1"/>
  <variable name="X(22,52,74)" index="18517" value="1"/>
  <variable name="X(23,6,146)" index="18763" value="1"/>
  <variable name="X(23,24,147)" index="18938" value="1"/>
  <variable name="X(23,53,23)" index="18988" value="1"/>
  <variable name="X(24,14,147)" index="19286" value="1"/>
  <variable name="X(24,23,23)" index="19336" value="1"/>
  <variable name="X(24,54,105)" index="19592" value="1"/>
  <variable name="X(25,14,155)" index="19816" value="1"/>
  <variable name="X(26,14,157)" index="19992" value="1"/>
  <variable name="X(26,56,90)" index="20099" value="1"/>
  <variable name="X(27,14,158)" index="20341" value="1"/>
  <variable name="X(27,57,24)" index="20381" value="1"/>
  <variable name="X(28,14,171)" index="20702" value="1"/>
  <variable name="X(28,29,114)" index="20819" value="1"/>
  <variable name="X(28,58,108)" index="20987" value="1"/>
  <variable name="X(29,28,171)" index="21224" value="1"/>
  <variable name="X(29,59,114)" index="21341" value="1"/>
  <variable name="X(30,21,174)" index="21575" value="1"/>
  <variable name="X(30,29,127)" index="21702" value="1"/>
 </variables>
</CPLEXSolution>
